400
400
320
320
319
317
317
316
316
315
315
315
314
314
313
313
313
312
312
312
311
310
309
309
309
308
307
305
305
304
304
304
303
301
301
301
300
299
298
298
297
296
296
294
291
290
290
290
289
289
288
288
288
288
287
287
286
286
285
284
283
283
283
281
281
280
280
279
279
278
278
277
277
275
275
275
274
274
273
271
270
270
270
269
268
266
264
263
262
261
261
259
258
256
255
254
253
252
252
252
251
250
250
248
247
247
247
247
246
246
245
244
244
244
243
243
242
241
241
238
237
237
237
236
236
235
235
232
231
231
231
229
229
228
228
226
225
225
225
225
223
223
223
223
222
221
221
221
220
219
217
216
216
215
214
214
213
213
212
211
210
210
208
207
206
204
204
204
203
203
203
203
203
203
202
201
200
200
200
200
200
199
199
199
198
197
195
194
193
193
192
192
192
190
189
189
188
187
187
187
186
184
183
183
182
182
182
181
181
179
178
178
178
176
176
176
174
174
171
170
170
169
169
168
167
166
166
165
165
164
163
163
162
162
161
161
161
160
159
158
157
156
156
156
156
155
155
155
154
152
151
150
149
147
144
143
143
143
143
142
142
141
141
140
140
140
139
139
139
136
135
135
131
131
131
131
130
130
129
128
128
127
126
126
125
124
124
124
124
123
122
122
122
122
121
121
121
120
120
119
117
114
113
112
110
110
109
109
109
108
108
107
105
105
104
104
104
104
103
102
102
100
100
97
97
97
96
96
95
95
94
94
94
94
93
91
91
90
88
87
87
86
85
84
84
84
83
81
81
80
80
78
77
72
72
72
72
72
71
68
68
67
66
63
62
62
61
61
61
60
59
58
58
57
57
56
55
54
53
52
52
52
51
51
51
50
50
48
48
47
47
47
47
46
46
44
43
43
43
42
42
41
